SAT
-1 -100 -99 -98 -81 -48 -65 82 58 -97 96 60 49 69 92 -14 -74 80 -7 30 95 -8 37 68 57 72 -27 -2 47 88 -39 -84 50 -93 -77 -76 43 85 -16 -31 -63 -17 -52 25 -32 -41 91 -87 -90 -53 -28 -71 11 -40 -38 34 70 46 10 -4 -61 67 -94 -29 36 -33 66 -78 13 -45 -75 -59 64 6 15 83 9 12 -89 -73 20 42 26 35 -51 79 -21 -62 19 86 -54 44 3 23 55 24 18 56 5 22 0
